204116.47,22.72,24.88
211220.32,21.95,24.05
207048.98,22.4,24.53
212218.72,21.85,23.93
213217.71,21.75,23.82
210251.98,22.06,24.16
213615.15,21.71,23.78
204411.5,22.69,24.85
207084.32,22.39,24.53
210789.56,22.0,24.1
217173.14,21.35,23.39
212587.88,21.81,23.89
204986.33,22.62,24.78
220378.87,21.04,23.05
216630.03,21.41,23.45
223710.59,20.73,22.71
211856.9,21.89,23.98
202605.64,22.89,25.07
210475.69,22.03,24.13
204831.45,22.64,24.8
